c sample MaxSAT instance — 20 variables, 50 clauses
c hand-crafted; not necessarily fully satisfiable (which is fine for MaxSAT).
p cnf 20 50
1 -2 3 0
-1 2 4 0
-3 5 -6 0
2 -4 -7 0
6 -8 9 0
-5 7 10 0
-9 11 -12 0
8 -10 -13 0
12 -14 15 0
-11 13 16 0
-15 17 -18 0
14 -16 -19 0
18 -20 1 0
-17 19 -2 0
-1 -2 -3 0
4 5 6 0
-4 -5 -6 0
7 8 9 0
-7 -8 -9 0
10 11 12 0
-10 -11 -12 0
13 14 15 0
-13 -14 -15 0
16 17 18 0
-16 -17 -18 0
1 5 9 0
-1 -5 -9 0
2 6 10 0
-2 -6 -10 0
3 7 11 0
-3 -7 -11 0
4 8 12 0
-4 -8 -12 0
13 17 1 0
-13 -17 -1 0
14 18 2 0
-14 -18 -2 0
15 19 3 0
-15 -19 -3 0
16 20 4 0
-16 -20 -4 0
1 -6 11 0
-2 7 -12 0
3 -8 13 0
-4 9 -14 0
5 -10 15 0
-1 6 -11 0
2 -7 12 0
-3 8 -13 0
20 -19 18 0
